N = 7;
H = 6;
T = 2;

avail = array3d(1..N, 1..H, 1..T, [10, 0, 6, 1, 2, 1, 0, 7, 0, 6, 2, 4, 9, 3, 0, 4, 2, 6, 0, 3, 2, 2, 2, 2, 2, 4, 5, 0, 7, 0, 0, 8, 2, 7, 7, 2, 9, 3, 6, 6, 6, 9, 8, 3, 7, 5, 0, 4, 9, 8, 6, 8, 4, 0, 5, 5, 4, 0, 10, 2, 9, 3, 6, 1, 7, 1, 8, 5, 8, 6, 3, 4, 1, 9, 8, 1, 3, 6, 4, 3, 10, 10, 7, 8]);

r = array2d(1..H, 1..T, [2, 4, 0, 2, 0, 2, 2, 2, 1, 3, 1, 2]);
